n_res = 4;
rc = [ 28, 33, 24, 26 ];
n_tasks = 30;
d = [ 6, 3, 9, 3, 8, 3, 1, 10, 8, 4, 9, 4, 9, 8, 5, 7, 2, 9, 9, 10, 9, 3, 8, 7, 4, 4, 2, 9, 9, 9 ];
rr = [| 28, 28, 28, 28, 28, 28, 28, 28, 28, 28, 28, 28, 28, 28, 28, 28, 28, 28, 28, 28, 28, 28, 28, 28, 28, 28, 28, 28, 28, 28
      | 33, 33, 33, 33, 33, 33, 33, 33, 33, 33, 33, 33, 33, 33, 33, 33, 33, 33, 33, 33, 33, 33, 33, 33, 33, 33, 33, 33, 33, 33
      | 24, 24, 24, 24, 24, 24, 24, 24, 24, 24, 24, 24, 24, 24, 24, 24, 24, 24, 24, 24, 24, 24, 24, 24, 24, 24, 24, 24, 24, 24
      | 26, 26, 26, 26, 26, 26, 26, 26, 26, 26, 26, 26, 26, 26, 26, 26, 26, 26, 26, 26, 26, 26, 26, 26, 26, 26, 26, 26, 26, 26|];
suc = [ { 6, 8, 20 },
       { 7, 13, 14 },
       { 4, 5, 10 },
       { 6, 8, 14 },
       { 12 },
       { 9, 11, 17 },
       { 9, 10, 11 },
       { 15, 21, 24 },
       { 12, 19, 21 },
       { 17, 22, 30 },
       { 12, 21, 24 },
       { 29, 30 },
       { 15, 19, 23 },
       { 16, 18, 24 },
       { 22, 27, 30 },
       { 17, 19, 20 },
       { 23, 25 },
       { 20, 26 },
       { 26, 27 },
       { 23, 29 },
       { 22 },
       { 25 },
       { 28 },
       { 25, 27 },
       { 26 },
       { 28, 29 },
       { 28 },
       {  },
       {  },
       {  } ];
